c is-sat
p cnf 10 68
-9 10 -3 0
10 -6 -8 0
-10 -4 -2 0
-1 4 2 0
-4 -3 -1 0
-8 4 -3 0
-8 6 -2 0
-3 -7 5 0
9 -7 -1 0
-6 4 -3 0
4 5 -9 0
6 -8 -4 0
-8 -7 -2 0
-8 -10 -6 0
-7 -10 5 0
-7 2 -3 0
-7 -2 -8 0
6 -9 -7 0
9 7 2 0
6 -4 7 0
-4 -5 -9 0
-2 6 -9 0
1 5 -3 0
-1 -8 -3 0
-9 -6 8 0
-4 -1 10 0
3 -1 -7 0
-5 -8 6 0
-7 4 -2 0
-1 2 -8 0
-6 1 -8 0
7 5 -9 0
-9 4 1 0
-9 -5 -10 0
-2 -3 -6 0
-6 -4 -1 0
-2 -3 -1 0
-4 -9 -7 0
-7 1 -8 0
-9 7 -4 0
1 -7 -4 0
4 8 9 0
-7 2 -6 0
-10 6 4 0
-8 7 -3 0
1 6 8 0
-9 -1 10 0
5 4 -8 0
6 -10 2 0
-4 -5 6 0
-8 -1 -10 0
9 -3 -6 0
-5 -7 -10 0
-4 1 2 0
8 -3 -2 0
-4 3 2 0
-4 -7 8 0
-10 -9 1 0
-1 -9 -10 0
-10 4 -8 0
6 1 -4 0
-3 -8 -9 0
-7 -5 -3 0
-9 -10 7 0
-4 -7 -1 0
3 -8 -4 0
-5 10 -4 0
8 -7 3 0
